certificates/rado_a13_c296_N31.cnf
c Rad2 upper bound instance: x1 + 13*x2 - x3 = 296, interval [1,31]
p cnf 31 148
1 4 23 0
-1 -4 -23 0
1 17 24 0
-1 -17 -24 0
1 25 30 0
-1 -25 -30 0
2 5 23 0
-2 -5 -23 0
2 18 24 0
-2 -18 -24 0
2 25 31 0
-2 -25 -31 0
3 6 23 0
-3 -6 -23 0
3 19 24 0
-3 -19 -24 0
4 7 23 0
-4 -7 -23 0
4 20 24 0
-4 -20 -24 0
5 8 23 0
-5 -8 -23 0
5 21 24 0
-5 -21 -24 0
6 9 23 0
-6 -9 -23 0
6 22 24 0
-6 -22 -24 0
7 10 23 0
-7 -10 -23 0
7 23 24 0
-7 -23 -24 0
8 11 23 0
-8 -11 -23 0
8 24 0
-8 -24 0
9 12 23 0
-9 -12 -23 0
9 24 25 0
-9 -24 -25 0
10 13 23 0
-10 -13 -23 0
10 24 26 0
-10 -24 -26 0
1 11 22 0
-1 -11 -22 0
11 14 23 0
-11 -14 -23 0
11 24 27 0
-11 -24 -27 0
2 12 22 0
-2 -12 -22 0
12 15 23 0
-12 -15 -23 0
12 24 28 0
-12 -24 -28 0
3 13 22 0
-3 -13 -22 0
13 16 23 0
-13 -16 -23 0
13 24 29 0
-13 -24 -29 0
4 14 22 0
-4 -14 -22 0
14 17 23 0
-14 -17 -23 0
14 24 30 0
-14 -24 -30 0
5 15 22 0
-5 -15 -22 0
15 18 23 0
-15 -18 -23 0
15 24 31 0
-15 -24 -31 0
6 16 22 0
-6 -16 -22 0
16 19 23 0
-16 -19 -23 0
7 17 22 0
-7 -17 -22 0
17 20 23 0
-17 -20 -23 0
8 18 22 0
-8 -18 -22 0
18 21 23 0
-18 -21 -23 0
9 19 22 0
-9 -19 -22 0
19 22 23 0
-19 -22 -23 0
10 20 22 0
-10 -20 -22 0
20 23 0
-20 -23 0
11 21 22 0
-11 -21 -22 0
21 23 24 0
-21 -23 -24 0
12 22 0
-12 -22 0
22 23 25 0
-22 -23 -25 0
13 22 23 0
-13 -22 -23 0
23 26 0
-23 -26 0
1 21 24 0
-1 -21 -24 0
14 22 24 0
-14 -22 -24 0
23 24 27 0
-23 -24 -27 0
2 21 25 0
-2 -21 -25 0
15 22 25 0
-15 -22 -25 0
23 25 28 0
-23 -25 -28 0
3 21 26 0
-3 -21 -26 0
16 22 26 0
-16 -22 -26 0
23 26 29 0
-23 -26 -29 0
4 21 27 0
-4 -21 -27 0
17 22 27 0
-17 -22 -27 0
23 27 30 0
-23 -27 -30 0
5 21 28 0
-5 -21 -28 0
18 22 28 0
-18 -22 -28 0
23 28 31 0
-23 -28 -31 0
6 21 29 0
-6 -21 -29 0
19 22 29 0
-19 -22 -29 0
7 21 30 0
-7 -21 -30 0
20 22 30 0
-20 -22 -30 0
8 21 31 0
-8 -21 -31 0
21 22 31 0
-21 -22 -31 0
