certificates/rado_a13_c296_N31.drat
-28 -30 -31 0
24 -31 0
-23 28 -24 0
-30 -31 0
d -28 -30 -31 0
23 -31 0
-31 0
-24 0
8 0
15 0
23 0
-20 0
-26 0
-5 0
-11 0
-12 0
-18 0
4 0
10 0
21 0
27 0
28 0
22 0
2 0
-1 0
-7 0
0
